10J3M/DAT/10J3MULR-6.dat
10 3
19.7817 28.0822
46.4543 11.9826
48.2718 44.7919
19.3884 40.3435
29.893 13.2702
4.564 12.2413
30.5673 13.006
3.4751 5.5663
1.8332 4.0012
31.6332 27.2575
66.8476