10J3M/SOL/10J3MULR-6.sol
solution status: optimal solution found
objective value:                             108.5043
x#1#1                                               1 	(obj:0)
x#2#1                               0.509641080754713 	(obj:0)
x#2#3                               0.490358919245287 	(obj:0)
x#3#2                                               1 	(obj:0)
x#4#2                               0.780221672309957 	(obj:0)
x#4#3                               0.219778327690043 	(obj:0)
x#5#3                                               1 	(obj:0)
x#6#2                                               1 	(obj:0)
x#7#3                                               1 	(obj:0)
x#8#1                               0.760935680014957 	(obj:0)
x#8#2                               0.239064319985043 	(obj:0)
x#9#1                                               1 	(obj:0)
x#10#1                              0.626729673661431 	(obj:0)
x#10#3                              0.373270326338569 	(obj:0)
z                                            108.5043 	(obj:1)
